p edge 21 91
e 1 2
e 1 3
e 1 4
e 1 5
e 1 6
e 1 7
e 2 3
e 2 4
e 2 5
e 2 6
e 2 7
e 3 4
e 3 5
e 3 6
e 3 7
e 4 5
e 4 6
e 4 7
e 5 6
e 5 7
e 6 7
e 7 8
e 7 10
e 7 12
e 7 14
e 7 16
e 7 18
e 7 21
e 8 9
e 8 11
e 8 13
e 8 17
e 8 19
e 8 20
e 9 10
e 9 11
e 9 12
e 9 13
e 9 14
e 9 15
e 9 17
e 9 18
e 9 19
e 9 20
e 9 21
e 10 11
e 10 13
e 10 15
e 10 19
e 10 20
e 11 12
e 11 13
e 11 14
e 11 15
e 11 16
e 11 17
e 11 19
e 11 20
e 11 21
e 12 13
e 12 15
e 12 17
e 12 20
e 13 14
e 13 15
e 13 16
e 13 17
e 13 18
e 13 19
e 13 20
e 14 15
e 14 17
e 14 19
e 15 16
e 15 17
e 15 18
e 15 19
e 15 20
e 15 21
e 16 17
e 16 19
e 16 20
e 17 18
e 17 19
e 17 20
e 17 21
e 18 19
e 18 20
e 19 20
e 19 21
e 20 21
